3287
2109
3592
1701
1006
2909
3778
2275
286
2054
1295
2564
3009
2976
1205
2303
2971
2102
2182
2929
1093
3415
2191
2114
760
1123
1222
3229
1948
3027
1812
1945
2683
3130
1285
386
3291
2251
3111
1395
663
1076
1721
3093
3042
2074
3300
1685
2259
2259

43387
21671
41607
11748
4806
39694
44010
25587
445
21182
10101
32663
31239
34888
7431

975
487
935
264
108
892
989
575
10
476
227
734
702
784
167

1665

143
72
137
39
16
131
145
85
2
70
34
108
103
115
25
101
136
94
97
125
29
138
100
88
16
21
34
138
94
127
45
91
133
150
49
1
123
99
115
26
8
4
62
107
103
98
120
80
108
82
